logs/miss/feas/miss-06-15-2.sol
# Objective value = 82
x0,1_7 0
x0,1_8 0
x0,1_9 0
x0,1_10 0
x0,1_12 0
x0,1_20 0
x0,1_22 0
x0,1_30 0
x0,1_39 0
x0,2_7 0
x0,2_8 0
x0,2_9 1
x0,2_10 0
x0,2_12 0
x0,2_20 0
x0,2_22 0
x0,2_30 0
x0,2_39 0
x0,3_7 0
x0,3_8 0
x0,3_9 0
x0,3_10 1
x0,3_12 0
x0,3_20 0
x0,3_22 0
x0,3_30 0
x0,3_39 0
x0,4_7 0
x0,4_8 0
x0,4_9 0
x0,4_10 0
x0,4_12 0
x0,4_20 0
x0,4_22 1
x0,4_30 0
x0,4_39 0
x0,5_7 0
x0,5_8 0
x0,5_9 0
x0,5_10 0
x0,5_12 0
x0,5_20 0
x0,5_22 0
x0,5_30 0
x0,5_39 1
x1,2_7 1
x1,2_8 0
x1,2_9 0
x1,2_10 0
x1,2_12 0
x1,2_20 0
x1,2_22 0
x1,2_30 0
x1,2_39 0
x1,3_7 0
x1,3_8 1
x1,3_9 0
x1,3_10 0
x1,3_12 0
x1,3_20 0
x1,3_22 0
x1,3_30 0
x1,3_39 0
x1,4_7 0
x1,4_8 0
x1,4_9 0
x1,4_10 0
x1,4_12 0
x1,4_20 1
x1,4_22 0
x1,4_30 0
x1,4_39 0
x1,5_7 0
x1,5_8 0
x1,5_9 0
x1,5_10 0
x1,5_12 0
x1,5_20 0
x1,5_22 0
x1,5_30 0
x1,5_39 0
x2,3_7 0
x2,3_8 0
x2,3_9 0
x2,3_10 0
x2,3_12 0
x2,3_20 0
x2,3_22 0
x2,3_30 0
x2,3_39 0
x2,4_7 0
x2,4_8 0
x2,4_9 0
x2,4_10 0
x2,4_12 0
x2,4_20 0
x2,4_22 0
x2,4_30 0
x2,4_39 0
x2,5_7 0
x2,5_8 0
x2,5_9 0
x2,5_10 0
x2,5_12 0
x2,5_20 0
x2,5_22 0
x2,5_30 1
x2,5_39 0
x3,4_7 0
x3,4_8 0
x3,4_9 0
x3,4_10 0
x3,4_12 1
x3,4_20 0
x3,4_22 0
x3,4_30 0
x3,4_39 0
x3,5_7 0
x3,5_8 0
x3,5_9 0
x3,5_10 0
x3,5_12 0
x3,5_20 0
x3,5_22 0
x3,5_30 0
x3,5_39 0
x4,5_7 0
x4,5_8 0
x4,5_9 0
x4,5_10 0
x4,5_12 0
x4,5_20 0
x4,5_22 0
x4,5_30 0
x4,5_39 0
p0 0
p1 2
p2 9
p3 10
p4 22
p5 39
